*SENSE:Maximize
NAME          MODEL
ROWS
 N  OBJ
 E  C0000000
 G  C0000001
 G  C0000002
 G  C0000003
COLUMNS
    X0000000  C0000001  -1.000000000000e+00
    X0000000  C0000002  -1.000000000000e+00
    X0000000  C0000003  -1.000000000000e+00
    X0000000  OBJ        1.000000000000e+00
    X0000002  C0000000   1.000000000000e+00
    X0000002  C0000001   1.000000000000e+00
    X0000002  C0000000   1.000000000000e+00
    X0000002  C0000001   1.000000000000e+00
    X0000004  C0000000   1.000000000000e+00
    X0000004  C0000002   1.000000000000e+00
    X0000004  C0000000   1.000000000000e+00
    X0000004  C0000002   1.000000000000e+00
    X0000006  C0000000   1.000000000000e+00
    X0000006  C0000003   1.000000000000e+00
    X0000006  C0000000   1.000000000000e+00
    X0000006  C0000003   1.000000000000e+00
RHS
    RHS       C0000000   1.000000000000e+00
    RHS       C0000001   0.000000000000e+00
    RHS       C0000002   0.000000000000e+00
    RHS       C0000003   0.000000000000e+00
BOUNDS
 FR BND       X0000000
 FR BND       X0000002
 FR BND       X0000004
 FR BND       X0000006
ENDATA
